(set-info :status unsat)
(declare-const symbol_745 (_ BitVec 32))
(declare-const symbol_577 (_ BitVec 32))
(declare-const symbol_225 (_ BitVec 32))
(declare-const symbol_498 (_ BitVec 32))
(declare-const symbol_422 (_ BitVec 32))
(declare-const symbol_438 (_ BitVec 32))
(declare-const symbol_510 (_ BitVec 32))
(declare-const symbol_484 (_ BitVec 32))
(declare-const symbol_125 (_ BitVec 32))
(declare-const symbol_739 (_ BitVec 32))
(declare-const symbol_366 (_ BitVec 32))
(declare-const symbol_677 (_ BitVec 32))
(declare-const symbol_458 (_ BitVec 32))
(declare-const symbol_454 (_ BitVec 32))
(declare-const symbol_338 (_ BitVec 32))
(declare-const symbol_843 (_ BitVec 32))
(declare-const symbol_156 (_ BitVec 32))
(declare-const symbol_198 (_ BitVec 32))
(declare-const symbol_296 (_ BitVec 32))
(declare-const symbol_152 (_ BitVec 32))
(declare-const symbol_723 (_ BitVec 32))
(declare-const symbol_247 (_ BitVec 32))
(declare-const symbol_224 (_ BitVec 32))
(declare-const symbol_54 (_ BitVec 32))
(declare-const symbol_810 (_ BitVec 32))
(declare-const symbol_272 (_ BitVec 32))
(declare-const symbol_167 (_ BitVec 32))
(declare-const symbol_705 (_ BitVec 32))
(declare-const symbol_446 (_ BitVec 32))
(declare-const symbol_254 (_ BitVec 32))
(declare-const symbol_171 (_ BitVec 32))
(declare-const symbol_828 (_ BitVec 32))
(declare-const symbol_84 (_ BitVec 32))
(declare-const symbol_727 (_ BitVec 32))
(declare-const symbol_687 (_ BitVec 32))
(declare-const symbol_241 (_ BitVec 32))
(declare-const symbol_623 (_ BitVec 32))
(declare-const symbol_621 (_ BitVec 32))
(declare-const symbol_554 (_ BitVec 32))
(declare-const symbol_29 (_ BitVec 32))
(declare-const symbol_23 (_ BitVec 32))
(declare-const symbol_104 (_ BitVec 32))
(declare-const symbol_729 (_ BitVec 32))
(declare-const symbol_560 (_ BitVec 32))
(declare-const symbol_96 (_ BitVec 32))
(declare-const symbol_550 (_ BitVec 32))
(declare-const symbol_396 (_ BitVec 32))
(declare-const symbol_377 (_ BitVec 32))
(declare-const symbol_531 (_ BitVec 32))
(declare-const symbol_52 (_ BitVec 32))
(declare-const symbol_16 (_ BitVec 32))
(declare-const symbol_11 (_ BitVec 32))
(declare-const symbol_737 (_ BitVec 32))
(declare-const symbol_465 (_ BitVec 32))
(declare-const symbol_608 (_ BitVec 32))
(declare-const symbol_428 (_ BitVec 32))
(declare-const symbol_311 (_ BitVec 32))
(declare-const symbol_24 (_ BitVec 32))
(declare-const symbol_373 (_ BitVec 32))
(declare-const symbol_1 (_ BitVec 32))
(declare-const symbol_719 (_ BitVec 32))
(declare-const symbol_370 (_ BitVec 32))
(declare-const symbol_264 (_ BitVec 32))
(declare-const symbol_185 (_ BitVec 32))
(declare-const symbol_418 (_ BitVec 32))
(declare-const symbol_67 (_ BitVec 32))
(declare-const symbol_176 (_ BitVec 32))
(declare-const symbol_715 (_ BitVec 32))
(declare-const symbol_481 (_ BitVec 32))
(declare-const symbol_399 (_ BitVec 32))
(declare-const symbol_62 (_ BitVec 32))
(declare-const symbol_380 (_ BitVec 32))
(declare-const symbol_566 (_ BitVec 32))
(declare-const symbol_787 (_ BitVec 32))
(declare-const symbol_274 (_ BitVec 32))
(declare-const symbol_200 (_ BitVec 32))
(declare-const symbol_463 (_ BitVec 32))
(declare-const symbol_278 (_ BitVec 32))
(declare-const symbol_235 (_ BitVec 32))
(declare-const symbol_136 (_ BitVec 32))
(declare-const symbol_590 (_ BitVec 32))
(declare-const symbol_326 (_ BitVec 32))
(declare-const symbol_585 (_ BitVec 32))
(declare-const symbol_350 (_ BitVec 32))
(declare-const symbol_154 (_ BitVec 32))
(declare-const symbol_86 (_ BitVec 32))
(declare-const symbol_801 (_ BitVec 32))
(declare-const symbol_663 (_ BitVec 32))
(declare-const symbol_20 (_ BitVec 32))
(declare-const symbol_766 (_ BitVec 32))
(declare-const symbol_641 (_ BitVec 32))
(declare-const symbol_805 (_ BitVec 32))
(declare-const symbol_340 (_ BitVec 32))
(declare-const symbol_194 (_ BitVec 32))
(declare-const symbol_659 (_ BitVec 32))
(declare-const symbol_602 (_ BitVec 32))
(declare-const symbol_477 (_ BitVec 32))
(declare-const symbol_444 (_ BitVec 32))
(declare-const symbol_504 (_ BitVec 32))
(declare-const symbol_490 (_ BitVec 32))
(declare-const symbol_426 (_ BitVec 32))
(declare-const symbol_210 (_ BitVec 32))
(declare-const symbol_12 (_ BitVec 32))
(declare-const symbol_683 (_ BitVec 32))
(declare-const symbol_215 (_ BitVec 32))
(declare-const symbol_5 (_ BitVec 32))
(declare-const symbol_829 (_ BitVec 32))
(declare-const symbol_762 (_ BitVec 32))
(declare-const symbol_309 (_ BitVec 32))
(declare-const symbol_506 (_ BitVec 32))
(declare-const symbol_90 (_ BitVec 32))
(declare-const symbol_627 (_ BitVec 32))
(declare-const symbol_321 (_ BitVec 32))
(declare-const symbol_741 (_ BitVec 32))
(declare-const symbol_597 (_ BitVec 32))
(declare-const symbol_304 (_ BitVec 32))
(declare-const symbol_160 (_ BitVec 32))
(declare-const symbol_134 (_ BitVec 32))
(declare-const symbol_112 (_ BitVec 32))
(declare-const symbol_579 (_ BitVec 32))
(declare-const symbol_616 (_ BitVec 32))
(declare-const symbol_535 (_ BitVec 32))
(declare-const symbol_410 (_ BitVec 32))
(declare-const symbol_725 (_ BitVec 32))
(declare-const symbol_731 (_ BitVec 32))
(declare-const symbol_356 (_ BitVec 32))
(declare-const symbol_776 (_ BitVec 32))
(declare-const symbol_797 (_ BitVec 32))
(declare-const symbol_319 (_ BitVec 32))
(declare-const symbol_49 (_ BitVec 32))
(declare-const symbol_394 (_ BitVec 32))
(declare-const symbol_378 (_ BitVec 32))
(declare-const symbol_468 (_ BitVec 32))
(declare-const symbol_141 (_ BitVec 32))
(declare-const symbol_538 (_ BitVec 32))
(declare-const symbol_486 (_ BitVec 32))
(declare-const symbol_204 (_ BitVec 32))
(declare-const symbol_116 (_ BitVec 32))
(declare-const symbol_635 (_ BitVec 32))
(declare-const symbol_514 (_ BitVec 32))
(declare-const symbol_436 (_ BitVec 32))
(declare-const symbol_524 (_ BitVec 32))
(declare-const symbol_424 (_ BitVec 32))
(declare-const symbol_237 (_ BitVec 32))
(declare-const symbol_387 (_ BitVec 32))
(declare-const symbol_530 (_ BitVec 32))
(declare-const symbol_451 (_ BitVec 32))
(declare-const symbol_139 (_ BitVec 32))
(declare-const symbol_697 (_ BitVec 32))
(declare-const symbol_9 (_ BitVec 32))
(declare-const symbol_770 (_ BitVec 32))
(declare-const symbol_583 (_ BitVec 32))
(declare-const symbol_561 (_ BitVec 32))
(declare-const symbol_368 (_ BitVec 32))
(declare-const symbol_544 (_ BitVec 32))
(declare-const symbol_315 (_ BitVec 32))
(declare-const symbol_306 (_ BitVec 32))
(declare-const symbol_230 (_ BitVec 32))
(declare-const symbol_749 (_ BitVec 32))
(declare-const symbol_192 (_ BitVec 32))
(declare-const symbol_473 (_ BitVec 32))
(declare-const symbol_183 (_ BitVec 32))
(declare-const symbol_108 (_ BitVec 32))
(declare-const symbol_778 (_ BitVec 32))
(declare-const symbol_743 (_ BitVec 32))
(declare-const symbol_285 (_ BitVec 32))
(declare-const symbol_3 (_ BitVec 32))
(declare-const symbol_760 (_ BitVec 32))
(declare-const symbol_123 (_ BitVec 32))
(declare-const symbol_631 (_ BitVec 32))
(declare-const symbol_831 (_ BitVec 32))
(declare-const symbol_818 (_ BitVec 32))
(declare-const symbol_196 (_ BitVec 32))
(declare-const symbol_100 (_ BitVec 32))
(declare-const symbol_57 (_ BitVec 32))
(declare-const symbol_803 (_ BitVec 32))
(declare-const symbol_733 (_ BitVec 32))
(declare-const symbol_127 (_ BitVec 32))
(declare-const symbol_94 (_ BitVec 32))
(declare-const symbol_72 (_ BitVec 32))
(declare-const symbol_546 (_ BitVec 32))
(declare-const symbol_799 (_ BitVec 32))
(declare-const symbol_665 (_ BitVec 32))
(declare-const symbol_173 (_ BitVec 32))
(declare-const symbol_258 (_ BitVec 32))
(declare-const symbol_785 (_ BitVec 32))
(declare-const symbol_691 (_ BitVec 32))
(declare-const symbol_266 (_ BitVec 32))
(declare-const symbol_518 (_ BitVec 32))
(declare-const symbol_111 (_ BitVec 32))
(declare-const symbol_120 (_ BitVec 32))
(declare-const symbol_174 (_ BitVec 32))
(declare-const symbol_612 (_ BitVec 32))
(declare-const symbol_142 (_ BitVec 32))
(declare-const symbol_89 (_ BitVec 32))
(declare-const symbol_606 (_ BitVec 32))
(declare-const symbol_575 (_ BitVec 32))
(declare-const symbol_206 (_ BitVec 32))
(declare-const symbol_643 (_ BitVec 32))
(declare-const symbol_548 (_ BitVec 32))
(declare-const symbol_675 (_ BitVec 32))
(declare-const symbol_276 (_ BitVec 32))
(declare-const symbol_768 (_ BitVec 32))
(declare-const symbol_649 (_ BitVec 32))
(declare-const symbol_826 (_ BitVec 32))
(declare-const symbol_391 (_ BitVec 32))
(declare-const symbol_268 (_ BitVec 32))
(declare-const symbol_442 (_ BitVec 32))
(declare-const symbol_148 (_ BitVec 32))
(declare-const symbol_69 (_ BitVec 32))
(declare-const symbol_129 (_ BitVec 32))
(declare-const symbol_114 (_ BitVec 32))
(declare-const symbol_245 (_ BitVec 32))
(declare-const symbol_81 (_ BitVec 32))
(declare-const symbol_637 (_ BitVec 32))
(declare-const symbol_569 (_ BitVec 32))
(declare-const symbol_406 (_ BitVec 32))
(declare-const symbol_71 (_ BitVec 32))
(declare-const symbol_824 (_ BitVec 32))
(declare-const symbol_721 (_ BitVec 32))
(declare-const symbol_420 (_ BitVec 32))
(declare-const symbol_317 (_ BitVec 32))
(declare-const symbol_707 (_ BitVec 32))
(declare-const symbol_653 (_ BitVec 32))
(declare-const symbol_466 (_ BitVec 32))
(declare-const symbol_703 (_ BitVec 32))
(declare-const symbol_475 (_ BitVec 32))
(declare-const symbol_460 (_ BitVec 32))
(declare-const symbol_588 (_ BitVec 32))
(declare-const symbol_837 (_ BitVec 32))
(declare-const symbol_701 (_ BitVec 32))
(declare-const symbol_298 (_ BitVec 32))
(declare-const symbol_619 (_ BitVec 32))
(declare-const symbol_520 (_ BitVec 32))
(declare-const symbol_42 (_ BitVec 32))
(declare-const symbol_614 (_ BitVec 32))
(declare-const symbol_456 (_ BitVec 32))
(declare-const symbol_401 (_ BitVec 32))
(declare-const symbol_432 (_ BitVec 32))
(declare-const symbol_625 (_ BitVec 32))
(declare-const symbol_471 (_ BitVec 32))
(declare-const symbol_783 (_ BitVec 32))
(declare-const symbol_496 (_ BitVec 32))
(declare-const symbol_106 (_ BitVec 32))
(declare-const symbol_717 (_ BitVec 32))
(declare-const symbol_610 (_ BitVec 32))
(declare-const symbol_137 (_ BitVec 32))
(declare-const symbol_243 (_ BitVec 32))
(declare-const symbol_488 (_ BitVec 32))
(declare-const symbol_102 (_ BitVec 32))
(declare-const symbol_77 (_ BitVec 32))
(declare-const symbol_60 (_ BitVec 32))
(declare-const symbol_681 (_ BitVec 32))
(declare-const symbol_657 (_ BitVec 32))
(declare-const symbol_735 (_ BitVec 32))
(declare-const symbol_284 (_ BitVec 32))
(declare-const symbol_647 (_ BitVec 32))
(declare-const symbol_352 (_ BitVec 32))
(declare-const symbol_158 (_ BitVec 32))
(declare-const symbol_567 (_ BitVec 32))
(declare-const symbol_323 (_ BitVec 32))
(declare-const symbol_348 (_ BitVec 32))
(declare-const symbol_841 (_ BitVec 32))
(declare-const symbol_685 (_ BitVec 32))
(declare-const symbol_564 (_ BitVec 32))
(declare-const symbol_528 (_ BitVec 32))
(declare-const symbol_405 (_ BitVec 32))
(declare-const symbol_181 (_ BitVec 32))
(declare-const symbol_47 (_ BitVec 32))
(declare-const symbol_713 (_ BitVec 32))
(declare-const symbol_516 (_ BitVec 32))
(declare-const symbol_747 (_ BitVec 32))
(declare-const symbol_711 (_ BitVec 32))
(declare-const symbol_540 (_ BitVec 32))
(declare-const symbol_375 (_ BitVec 32))
(declare-const symbol_14 (_ BitVec 32))
(declare-const symbol_807 (_ BitVec 32))
(declare-const symbol_756 (_ BitVec 32))
(declare-const symbol_408 (_ BitVec 32))
(declare-const symbol_221 (_ BitVec 32))
(declare-const symbol_693 (_ BitVec 32))
(declare-const symbol_440 (_ BitVec 32))
(declare-const symbol_385 (_ BitVec 32))
(declare-const symbol_820 (_ BitVec 32))
(declare-const symbol_556 (_ BitVec 32))
(declare-const symbol_219 (_ BitVec 32))
(declare-const symbol_79 (_ BitVec 32))
(declare-const symbol_814 (_ BitVec 32))
(declare-const symbol_403 (_ BitVec 32))
(declare-const symbol_233 (_ BitVec 32))
(declare-const symbol_604 (_ BitVec 32))
(declare-const symbol_228 (_ BitVec 32))
(declare-const symbol_673 (_ BitVec 32))
(declare-const symbol_336 (_ BitVec 32))
(declare-const symbol_328 (_ BitVec 32))
(declare-const symbol_542 (_ BitVec 32))
(declare-const symbol_449 (_ BitVec 32))
(declare-const symbol_358 (_ BitVec 32))
(declare-const symbol_287 (_ BitVec 32))
(declare-const symbol_344 (_ BitVec 32))
(declare-const symbol_40 (_ BitVec 32))
(declare-const symbol_558 (_ BitVec 32))
(declare-const symbol_526 (_ BitVec 32))
(declare-const symbol_300 (_ BitVec 32))
(declare-const symbol_21 (_ BitVec 32))
(declare-const symbol_639 (_ BitVec 32))
(declare-const symbol_494 (_ BitVec 32))
(declare-const symbol_43 (_ BitVec 32))
(declare-const symbol_629 (_ BitVec 32))
(declare-const symbol_598 (_ BitVec 32))
(declare-const symbol_416 (_ BitVec 32))
(declare-const symbol_342 (_ BitVec 32))
(declare-const symbol_98 (_ BitVec 32))
(declare-const symbol_31 (_ BitVec 32))
(declare-const symbol_239 (_ BitVec 32))
(declare-const symbol_7 (_ BitVec 32))
(declare-const symbol_645 (_ BitVec 32))
(declare-const symbol_212 (_ BitVec 32))
(declare-const symbol_208 (_ BitVec 32))
(declare-const symbol_774 (_ BitVec 32))
(declare-const symbol_362 (_ BitVec 32))
(declare-const symbol_667 (_ BitVec 32))
(declare-const symbol_595 (_ BitVec 32))
(declare-const symbol_709 (_ BitVec 32))
(declare-const symbol_290 (_ BitVec 32))
(declare-const symbol_360 (_ BitVec 32))
(declare-const symbol_781 (_ BitVec 32))
(declare-const symbol_633 (_ BitVec 32))
(declare-const symbol_812 (_ BitVec 32))
(declare-const symbol_571 (_ BitVec 32))
(declare-const symbol_434 (_ BitVec 32))
(declare-const symbol_150 (_ BitVec 32))
(declare-const symbol_586 (_ BitVec 32))
(declare-const symbol_512 (_ BitVec 32))
(declare-const symbol_346 (_ BitVec 32))
(declare-const symbol_163 (_ BitVec 32))
(declare-const symbol_260 (_ BitVec 32))
(declare-const symbol_330 (_ BitVec 32))
(declare-const symbol_294 (_ BitVec 32))
(declare-const symbol_144 (_ BitVec 32))
(declare-const symbol_27 (_ BitVec 32))
(declare-const symbol_655 (_ BitVec 32))
(declare-const symbol_822 (_ BitVec 32))
(declare-const symbol_679 (_ BitVec 32))
(declare-const symbol_303 (_ BitVec 32))
(declare-const symbol_383 (_ BitVec 32))
(declare-const symbol_118 (_ BitVec 32))
(declare-const symbol_779 (_ BitVec 32))
(declare-const symbol_522 (_ BitVec 32))
(declare-const symbol_414 (_ BitVec 32))
(declare-const symbol_252 (_ BitVec 32))
(declare-const symbol_772 (_ BitVec 32))
(declare-const symbol_45 (_ BitVec 32))
(declare-const symbol_354 (_ BitVec 32))
(declare-const symbol_132 (_ BitVec 32))
(declare-const symbol_689 (_ BitVec 32))
(declare-const symbol_592 (_ BitVec 32))
(declare-const symbol_334 (_ BitVec 32))
(declare-const symbol_699 (_ BitVec 32))
(declare-const symbol_573 (_ BitVec 32))
(declare-const symbol_618 (_ BitVec 32))
(declare-const symbol_75 (_ BitVec 32))
(declare-const symbol_809 (_ BitVec 32))
(declare-const symbol_249 (_ BitVec 32))
(declare-const symbol_0 (_ BitVec 32))
(declare-const symbol_392 (_ BitVec 32))
(declare-const symbol_753 (_ BitVec 32))
(declare-const symbol_92 (_ BitVec 32))
(declare-const symbol_791 (_ BitVec 32))
(declare-const symbol_188 (_ BitVec 32))
(declare-const symbol_179 (_ BitVec 32))
(declare-const symbol_36 (_ BitVec 32))
(declare-const symbol_839 (_ BitVec 32))
(declare-const symbol_64 (_ BitVec 32))
(declare-const symbol_270 (_ BitVec 32))
(declare-const symbol_34 (_ BitVec 32))
(declare-const symbol_816 (_ BitVec 32))
(declare-const symbol_834 (_ BitVec 32))
(declare-const symbol_651 (_ BitVec 32))
(declare-const symbol_581 (_ BitVec 32))
(declare-const symbol_38 (_ BitVec 32))
(declare-const symbol_479 (_ BitVec 32))
(declare-const symbol_262 (_ BitVec 32))
(declare-const symbol_795 (_ BitVec 32))
(declare-const symbol_453 (_ BitVec 32))
(declare-const symbol_282 (_ BitVec 32))
(declare-const symbol_202 (_ BitVec 32))
(declare-const symbol_752 (_ BitVec 32))
(declare-const symbol_508 (_ BitVec 32))
(declare-const symbol_177 (_ BitVec 32))
(declare-const symbol_793 (_ BitVec 32))
(declare-const symbol_18 (_ BitVec 32))
(declare-const symbol_430 (_ BitVec 32))
(declare-const symbol_533 (_ BitVec 32))
(declare-const symbol_313 (_ BitVec 32))
(declare-const symbol_169 (_ BitVec 32))
(declare-const symbol_364 (_ BitVec 32))
(declare-const symbol_190 (_ BitVec 32))
(declare-const symbol_412 (_ BitVec 32))
(declare-const symbol_502 (_ BitVec 32))
(declare-const symbol_764 (_ BitVec 32))
(declare-const symbol_695 (_ BitVec 32))
(declare-const symbol_661 (_ BitVec 32))
(declare-const symbol_292 (_ BitVec 32))
(declare-const symbol_256 (_ BitVec 32))
(declare-const symbol_789 (_ BitVec 32))
(declare-const symbol_600 (_ BitVec 32))
(declare-const symbol_389 (_ BitVec 32))
(declare-const symbol_217 (_ BitVec 32))
(declare-const symbol_186 (_ BitVec 32))
(declare-const symbol_669 (_ BitVec 32))
(declare-const symbol_500 (_ BitVec 32))
(declare-const symbol_835 (_ BitVec 32))
(declare-const symbol_552 (_ BitVec 32))
(declare-const symbol_279 (_ BitVec 32))
(declare-const symbol_165 (_ BitVec 32))
(declare-const symbol_492 (_ BitVec 32))
(declare-const symbol_146 (_ BitVec 32))
(declare-const symbol_332 (_ BitVec 32))
(declare-const symbol_214 (_ BitVec 32))
(declare-const symbol_87 (_ BitVec 32))
(declare-const symbol_758 (_ BitVec 32))
(declare-const symbol_671 (_ BitVec 32))
(assert (= symbol_843 (_ bv15 32)))
(assert (not (not (= symbol_843 (_ bv6 32)))))
(assert (not (not (= symbol_841 (_ bv6 32)))))
(assert (not (not (= symbol_839 (_ bv6 32)))))
(assert (not (not (= symbol_837 (_ bv6 32)))))
(assert (not (not (= symbol_835 (_ bv6 32)))))
(assert (not (not (= symbol_834 (_ bv6 32)))))
(assert (not (not (= symbol_831 (_ bv6 32)))))
(assert (not (not (= symbol_829 (_ bv6 32)))))
(assert (not (not (= symbol_828 (_ bv6 32)))))
(assert (not (not (= symbol_826 (_ bv6 32)))))
(assert (not (not (= symbol_824 (_ bv6 32)))))
(assert (not (not (= symbol_822 (_ bv6 32)))))
(assert (not (not (= symbol_820 (_ bv6 32)))))
(assert (not (not (= symbol_818 (_ bv6 32)))))
(assert (not (not (= symbol_816 (_ bv6 32)))))
(assert (not (not (= symbol_814 (_ bv6 32)))))
(assert (not (not (= symbol_812 (_ bv6 32)))))
(assert (not (not (= symbol_810 (_ bv6 32)))))
(assert (not (not (= symbol_809 (_ bv6 32)))))
(assert (not (not (= symbol_807 (_ bv6 32)))))
(assert (not (not (= symbol_805 (_ bv6 32)))))
(assert (not (not (= symbol_803 (_ bv6 32)))))
(assert (not (not (= symbol_801 (_ bv6 32)))))
(assert (not (not (= symbol_799 (_ bv6 32)))))
(assert (not (not (= symbol_797 (_ bv6 32)))))
(assert (not (not (= symbol_795 (_ bv6 32)))))
(assert (not (not (= symbol_793 (_ bv6 32)))))
(assert (not (not (= symbol_791 (_ bv6 32)))))
(assert (not (not (= symbol_789 (_ bv6 32)))))
(assert (not (not (= symbol_787 (_ bv6 32)))))
(assert (not (not (= symbol_785 (_ bv6 32)))))
(assert (not (not (= symbol_783 (_ bv6 32)))))
(assert (not (not (= symbol_781 (_ bv6 32)))))
(assert (not (not (= symbol_779 (_ bv6 32)))))
(assert (not (not (= symbol_778 (_ bv6 32)))))
(assert (not (not (= symbol_776 (_ bv6 32)))))
(assert (not (not (= symbol_774 (_ bv6 32)))))
(assert (not (not (= symbol_772 (_ bv6 32)))))
(assert (not (not (= symbol_770 (_ bv6 32)))))
(assert (not (not (= symbol_768 (_ bv6 32)))))
(assert (not (not (= symbol_766 (_ bv6 32)))))
(assert (not (not (= symbol_764 (_ bv6 32)))))
(assert (not (not (= symbol_762 (_ bv6 32)))))
(assert (not (not (= symbol_760 (_ bv6 32)))))
(assert (not (not (= symbol_758 (_ bv6 32)))))
(assert (not (not (= symbol_756 (_ bv6 32)))))
(assert (not (not (= symbol_753 (_ bv6 32)))))
(assert (not (not (= symbol_752 (_ bv6 32)))))
(assert (not (not (= symbol_749 (_ bv6 32)))))
(assert (not (not (= symbol_747 (_ bv6 32)))))
(assert (not (not (= symbol_745 (_ bv6 32)))))
(assert (not (not (= symbol_743 (_ bv6 32)))))
(assert (not (not (= symbol_741 (_ bv6 32)))))
(assert (not (not (= symbol_739 (_ bv6 32)))))
(assert (not (not (= symbol_737 (_ bv6 32)))))
(assert (not (not (= symbol_735 (_ bv6 32)))))
(assert (not (not (= symbol_733 (_ bv6 32)))))
(assert (not (not (= symbol_731 (_ bv6 32)))))
(assert (not (not (= symbol_729 (_ bv6 32)))))
(assert (not (not (= symbol_727 (_ bv6 32)))))
(assert (not (not (= symbol_725 (_ bv6 32)))))
(assert (not (not (= symbol_723 (_ bv6 32)))))
(assert (not (not (= symbol_721 (_ bv6 32)))))
(assert (not (not (= symbol_719 (_ bv6 32)))))
(assert (not (not (= symbol_717 (_ bv6 32)))))
(assert (not (not (= symbol_715 (_ bv6 32)))))
(assert (not (not (= symbol_713 (_ bv6 32)))))
(assert (not (not (= symbol_711 (_ bv6 32)))))
(assert (not (not (= symbol_709 (_ bv6 32)))))
(assert (not (not (= symbol_707 (_ bv6 32)))))
(assert (not (not (= symbol_705 (_ bv6 32)))))
(assert (not (not (= symbol_703 (_ bv6 32)))))
(assert (not (not (= symbol_701 (_ bv6 32)))))
(assert (not (not (= symbol_699 (_ bv6 32)))))
(assert (not (not (= symbol_697 (_ bv6 32)))))
(assert (not (not (= symbol_695 (_ bv6 32)))))
(assert (not (not (= symbol_693 (_ bv6 32)))))
(assert (not (not (= symbol_691 (_ bv6 32)))))
(assert (not (not (= symbol_689 (_ bv6 32)))))
(assert (not (not (= symbol_687 (_ bv6 32)))))
(assert (not (not (= symbol_685 (_ bv6 32)))))
(assert (not (not (= symbol_683 (_ bv6 32)))))
(assert (not (not (= symbol_681 (_ bv6 32)))))
(assert (not (not (= symbol_679 (_ bv6 32)))))
(assert (not (not (= symbol_677 (_ bv6 32)))))
(assert (not (not (= symbol_675 (_ bv6 32)))))
(assert (not (not (= symbol_673 (_ bv6 32)))))
(assert (not (not (= symbol_671 (_ bv6 32)))))
(assert (not (not (= symbol_669 (_ bv6 32)))))
(assert (not (not (= symbol_667 (_ bv6 32)))))
(assert (not (not (= symbol_665 (_ bv6 32)))))
(assert (not (not (= symbol_663 (_ bv6 32)))))
(assert (not (not (= symbol_661 (_ bv6 32)))))
(assert (not (not (= symbol_659 (_ bv6 32)))))
(assert (not (not (= symbol_657 (_ bv6 32)))))
(assert (not (not (= symbol_655 (_ bv6 32)))))
(assert (not (not (= symbol_653 (_ bv6 32)))))
(assert (not (not (= symbol_651 (_ bv6 32)))))
(assert (not (not (= symbol_649 (_ bv6 32)))))
(assert (not (not (= symbol_647 (_ bv6 32)))))
(assert (not (not (= symbol_645 (_ bv6 32)))))
(assert (not (not (= symbol_643 (_ bv6 32)))))
(assert (not (not (= symbol_641 (_ bv6 32)))))
(assert (not (not (= symbol_639 (_ bv6 32)))))
(assert (not (not (= symbol_637 (_ bv6 32)))))
(assert (not (not (= symbol_635 (_ bv6 32)))))
(assert (not (not (= symbol_633 (_ bv6 32)))))
(assert (not (not (= symbol_631 (_ bv6 32)))))
(assert (not (not (= symbol_629 (_ bv6 32)))))
(assert (not (not (= symbol_627 (_ bv6 32)))))
(assert (not (not (= symbol_625 (_ bv6 32)))))
(assert (not (not (= symbol_623 (_ bv6 32)))))
(assert (not (not (= symbol_621 (_ bv6 32)))))
(assert (not (not (= symbol_619 (_ bv6 32)))))
(assert (not (not (= symbol_618 (_ bv6 32)))))
(assert (not (not (= symbol_616 (_ bv6 32)))))
(assert (not (not (= symbol_614 (_ bv6 32)))))
(assert (not (not (= symbol_612 (_ bv6 32)))))
(assert (not (not (= symbol_610 (_ bv6 32)))))
(assert (not (not (= symbol_608 (_ bv6 32)))))
(assert (not (not (= symbol_606 (_ bv6 32)))))
(assert (not (not (= symbol_604 (_ bv6 32)))))
(assert (not (not (= symbol_602 (_ bv6 32)))))
(assert (not (not (= symbol_600 (_ bv6 32)))))
(assert (not (not (= symbol_598 (_ bv6 32)))))
(assert (not (not (= symbol_597 (_ bv6 32)))))
(assert (not (not (= symbol_595 (_ bv6 32)))))
(assert (not (not (= symbol_592 (_ bv6 32)))))
(assert (not (not (= symbol_590 (_ bv6 32)))))
(assert (not (not (= symbol_588 (_ bv6 32)))))
(assert (not (not (= symbol_586 (_ bv6 32)))))
(assert (not (not (= symbol_585 (_ bv6 32)))))
(assert (not (not (= symbol_583 (_ bv6 32)))))
(assert (not (not (= symbol_581 (_ bv6 32)))))
(assert (not (not (= symbol_579 (_ bv6 32)))))
(assert (not (not (= symbol_577 (_ bv6 32)))))
(assert (not (not (= symbol_575 (_ bv6 32)))))
(assert (not (not (= symbol_573 (_ bv6 32)))))
(assert (not (not (= symbol_571 (_ bv6 32)))))
(assert (not (not (= symbol_569 (_ bv6 32)))))
(assert (not (not (= symbol_567 (_ bv6 32)))))
(assert (not (not (= symbol_566 (_ bv6 32)))))
(assert (not (not (= symbol_564 (_ bv6 32)))))
(assert (not (not (= symbol_561 (_ bv6 32)))))
(assert (not (not (= symbol_560 (_ bv6 32)))))
(assert (not (not (= symbol_558 (_ bv6 32)))))
(assert (not (not (= symbol_556 (_ bv6 32)))))
(assert (not (not (= symbol_554 (_ bv6 32)))))
(assert (not (not (= symbol_552 (_ bv6 32)))))
(assert (not (not (= symbol_550 (_ bv6 32)))))
(assert (not (not (= symbol_548 (_ bv6 32)))))
(assert (not (not (= symbol_546 (_ bv6 32)))))
(assert (not (not (= symbol_544 (_ bv6 32)))))
(assert (not (not (= symbol_542 (_ bv6 32)))))
(assert (not (not (= symbol_540 (_ bv6 32)))))
(assert (not (not (= symbol_538 (_ bv6 32)))))
(assert (not (not (= symbol_535 (_ bv6 32)))))
(assert (not (not (= symbol_533 (_ bv6 32)))))
(assert (not (not (= symbol_531 (_ bv6 32)))))
(assert (not (not (= symbol_530 (_ bv6 32)))))
(assert (not (not (= symbol_528 (_ bv6 32)))))
(assert (not (not (= symbol_526 (_ bv6 32)))))
(assert (not (not (= symbol_524 (_ bv6 32)))))
(assert (not (not (= symbol_522 (_ bv6 32)))))
(assert (not (not (= symbol_520 (_ bv6 32)))))
(assert (not (not (= symbol_518 (_ bv6 32)))))
(assert (not (not (= symbol_516 (_ bv6 32)))))
(assert (not (not (= symbol_514 (_ bv6 32)))))
(assert (not (not (= symbol_512 (_ bv6 32)))))
(assert (not (not (= symbol_510 (_ bv6 32)))))
(assert (not (not (= symbol_508 (_ bv6 32)))))
(assert (not (not (= symbol_506 (_ bv6 32)))))
(assert (not (not (= symbol_504 (_ bv6 32)))))
(assert (not (not (= symbol_502 (_ bv6 32)))))
(assert (not (not (= symbol_500 (_ bv6 32)))))
(assert (not (not (= symbol_498 (_ bv6 32)))))
(assert (not (not (= symbol_496 (_ bv6 32)))))
(assert (not (not (= symbol_494 (_ bv6 32)))))
(assert (not (not (= symbol_492 (_ bv6 32)))))
(assert (not (not (= symbol_490 (_ bv6 32)))))
(assert (not (not (= symbol_488 (_ bv6 32)))))
(assert (not (not (= symbol_486 (_ bv6 32)))))
(assert (not (not (= symbol_484 (_ bv6 32)))))
(assert (not (not (= symbol_481 (_ bv6 32)))))
(assert (not (not (= symbol_479 (_ bv6 32)))))
(assert (not (not (= symbol_477 (_ bv6 32)))))
(assert (not (not (= symbol_475 (_ bv6 32)))))
(assert (not (not (= symbol_473 (_ bv6 32)))))
(assert (not (not (= symbol_471 (_ bv6 32)))))
(assert (not (not (= symbol_468 (_ bv6 32)))))
(assert (not (not (= symbol_466 (_ bv6 32)))))
(assert (not (not (= symbol_465 (_ bv6 32)))))
(assert (not (not (= symbol_463 (_ bv6 32)))))
(assert (not (not (= symbol_460 (_ bv6 32)))))
(assert (not (not (= symbol_458 (_ bv6 32)))))
(assert (not (not (= symbol_456 (_ bv6 32)))))
(assert (not (not (= symbol_454 (_ bv6 32)))))
(assert (not (not (= symbol_453 (_ bv6 32)))))
(assert (not (not (= symbol_451 (_ bv6 32)))))
(assert (not (not (= symbol_449 (_ bv6 32)))))
(assert (not (not (= symbol_446 (_ bv6 32)))))
(assert (not (not (= symbol_444 (_ bv6 32)))))
(assert (not (not (= symbol_442 (_ bv6 32)))))
(assert (not (not (= symbol_440 (_ bv6 32)))))
(assert (not (not (= symbol_438 (_ bv6 32)))))
(assert (not (not (= symbol_436 (_ bv6 32)))))
(assert (not (not (= symbol_434 (_ bv6 32)))))
(assert (not (not (= symbol_432 (_ bv6 32)))))
(assert (not (not (= symbol_430 (_ bv6 32)))))
(assert (not (not (= symbol_428 (_ bv6 32)))))
(assert (not (not (= symbol_426 (_ bv6 32)))))
(assert (not (not (= symbol_424 (_ bv6 32)))))
(assert (not (not (= symbol_422 (_ bv6 32)))))
(assert (not (not (= symbol_420 (_ bv6 32)))))
(assert (not (not (= symbol_418 (_ bv6 32)))))
(assert (not (not (= symbol_416 (_ bv6 32)))))
(assert (not (not (= symbol_414 (_ bv6 32)))))
(assert (not (not (= symbol_412 (_ bv6 32)))))
(assert (not (not (= symbol_410 (_ bv6 32)))))
(assert (not (not (= symbol_408 (_ bv6 32)))))
(assert (not (not (= symbol_406 (_ bv6 32)))))
(assert (not (not (= symbol_405 (_ bv6 32)))))
(assert (not (not (= symbol_403 (_ bv6 32)))))
(assert (not (not (= symbol_401 (_ bv6 32)))))
(assert (not (not (= symbol_399 (_ bv6 32)))))
(assert (not (not (= symbol_396 (_ bv6 32)))))
(assert (not (not (= symbol_394 (_ bv6 32)))))
(assert (not (not (= symbol_392 (_ bv6 32)))))
(assert (not (not (= symbol_391 (_ bv6 32)))))
(assert (not (not (= symbol_389 (_ bv6 32)))))
(assert (not (not (= symbol_387 (_ bv6 32)))))
(assert (not (not (= symbol_385 (_ bv6 32)))))
(assert (not (not (= symbol_383 (_ bv6 32)))))
(assert (not (not (= symbol_380 (_ bv6 32)))))
(assert (not (not (= symbol_378 (_ bv6 32)))))
(assert (not (not (= symbol_377 (_ bv6 32)))))
(assert (not (not (= symbol_375 (_ bv6 32)))))
(assert (not (not (= symbol_373 (_ bv6 32)))))
(assert (not (not (= symbol_370 (_ bv6 32)))))
(assert (not (not (= symbol_368 (_ bv6 32)))))
(assert (not (not (= symbol_366 (_ bv6 32)))))
(assert (not (not (= symbol_364 (_ bv6 32)))))
(assert (not (not (= symbol_362 (_ bv6 32)))))
(assert (not (not (= symbol_360 (_ bv6 32)))))
(assert (not (not (= symbol_358 (_ bv6 32)))))
(assert (not (not (= symbol_356 (_ bv6 32)))))
(assert (not (not (= symbol_354 (_ bv6 32)))))
(assert (not (not (= symbol_352 (_ bv6 32)))))
(assert (not (not (= symbol_350 (_ bv6 32)))))
(assert (not (not (= symbol_348 (_ bv6 32)))))
(assert (not (not (= symbol_346 (_ bv6 32)))))
(assert (not (not (= symbol_344 (_ bv6 32)))))
(assert (not (not (= symbol_342 (_ bv6 32)))))
(assert (not (not (= symbol_340 (_ bv6 32)))))
(assert (not (not (= symbol_338 (_ bv6 32)))))
(assert (not (not (= symbol_336 (_ bv6 32)))))
(assert (not (not (= symbol_334 (_ bv6 32)))))
(assert (not (not (= symbol_332 (_ bv6 32)))))
(assert (not (not (= symbol_330 (_ bv6 32)))))
(assert (not (not (= symbol_328 (_ bv6 32)))))
(assert (not (not (= symbol_326 (_ bv6 32)))))
(assert (not (not (= symbol_323 (_ bv6 32)))))
(assert (not (not (= symbol_321 (_ bv6 32)))))
(assert (not (not (= symbol_319 (_ bv6 32)))))
(assert (not (not (= symbol_317 (_ bv6 32)))))
(assert (not (not (= symbol_315 (_ bv6 32)))))
(assert (not (not (= symbol_313 (_ bv6 32)))))
(assert (not (not (= symbol_311 (_ bv6 32)))))
(assert (not (not (= symbol_309 (_ bv6 32)))))
(assert (not (not (= symbol_306 (_ bv6 32)))))
(assert (not (not (= symbol_304 (_ bv6 32)))))
(assert (not (not (= symbol_303 (_ bv6 32)))))
(assert (not (not (= symbol_300 (_ bv6 32)))))
(assert (not (not (= symbol_298 (_ bv6 32)))))
(assert (not (not (= symbol_296 (_ bv6 32)))))
(assert (not (not (= symbol_294 (_ bv6 32)))))
(assert (not (not (= symbol_292 (_ bv6 32)))))
(assert (not (not (= symbol_290 (_ bv6 32)))))
(assert (not (not (= symbol_287 (_ bv6 32)))))
(assert (not (not (= symbol_285 (_ bv6 32)))))
(assert (not (not (= symbol_284 (_ bv6 32)))))
(assert (not (not (= symbol_282 (_ bv6 32)))))
(assert (not (not (= symbol_279 (_ bv6 32)))))
(assert (not (not (= symbol_278 (_ bv6 32)))))
(assert (not (not (= symbol_276 (_ bv6 32)))))
(assert (not (not (= symbol_274 (_ bv6 32)))))
(assert (not (not (= symbol_272 (_ bv6 32)))))
(assert (not (not (= symbol_270 (_ bv6 32)))))
(assert (not (not (= symbol_268 (_ bv6 32)))))
(assert (not (not (= symbol_266 (_ bv6 32)))))
(assert (not (not (= symbol_264 (_ bv6 32)))))
(assert (not (not (= symbol_262 (_ bv6 32)))))
(assert (not (not (= symbol_260 (_ bv6 32)))))
(assert (not (not (= symbol_258 (_ bv6 32)))))
(assert (not (not (= symbol_256 (_ bv6 32)))))
(assert (not (not (= symbol_254 (_ bv6 32)))))
(assert (not (not (= symbol_252 (_ bv6 32)))))
(assert (not (not (= symbol_249 (_ bv6 32)))))
(assert (not (not (= symbol_247 (_ bv6 32)))))
(assert (not (not (= symbol_245 (_ bv6 32)))))
(assert (not (not (= symbol_243 (_ bv6 32)))))
(assert (not (not (= symbol_241 (_ bv6 32)))))
(assert (not (not (= symbol_239 (_ bv6 32)))))
(assert (not (not (= symbol_237 (_ bv6 32)))))
(assert (not (not (= symbol_235 (_ bv6 32)))))
(assert (not (not (= symbol_233 (_ bv6 32)))))
(assert (not (not (= symbol_230 (_ bv6 32)))))
(assert (not (not (= symbol_228 (_ bv6 32)))))
(assert (not (not (= symbol_225 (_ bv6 32)))))
(assert (not (not (= symbol_224 (_ bv6 32)))))
(assert (not (not (= symbol_221 (_ bv6 32)))))
(assert (not (not (= symbol_219 (_ bv6 32)))))
(assert (not (not (= symbol_217 (_ bv6 32)))))
(assert (not (not (= symbol_215 (_ bv6 32)))))
(assert (not (not (= symbol_214 (_ bv6 32)))))
(assert (not (not (= symbol_212 (_ bv6 32)))))
(assert (not (not (= symbol_210 (_ bv6 32)))))
(assert (not (not (= symbol_208 (_ bv6 32)))))
(assert (not (not (= symbol_206 (_ bv6 32)))))
(assert (not (not (= symbol_204 (_ bv6 32)))))
(assert (not (not (= symbol_202 (_ bv6 32)))))
(assert (not (not (= symbol_200 (_ bv6 32)))))
(assert (not (not (= symbol_198 (_ bv6 32)))))
(assert (not (not (= symbol_196 (_ bv6 32)))))
(assert (not (not (= symbol_194 (_ bv6 32)))))
(assert (not (not (= symbol_192 (_ bv6 32)))))
(assert (not (not (= symbol_190 (_ bv6 32)))))
(assert (not (not (= symbol_188 (_ bv6 32)))))
(assert (not (not (= symbol_186 (_ bv6 32)))))
(assert (not (not (= symbol_185 (_ bv6 32)))))
(assert (not (not (= symbol_183 (_ bv6 32)))))
(assert (not (not (= symbol_181 (_ bv6 32)))))
(assert (not (not (= symbol_179 (_ bv6 32)))))
(assert (not (not (= symbol_177 (_ bv6 32)))))
(assert (not (not (= symbol_176 (_ bv6 32)))))
(assert (not (not (= symbol_174 (_ bv6 32)))))
(assert (not (not (= symbol_173 (_ bv6 32)))))
(assert (not (not (= symbol_171 (_ bv6 32)))))
(assert (not (not (= symbol_169 (_ bv6 32)))))
(assert (not (not (= symbol_167 (_ bv6 32)))))
(assert (not (not (= symbol_165 (_ bv6 32)))))
(assert (not (not (= symbol_163 (_ bv6 32)))))
(assert (not (not (= symbol_160 (_ bv6 32)))))
(assert (not (not (= symbol_158 (_ bv6 32)))))
(assert (not (not (= symbol_156 (_ bv6 32)))))
(assert (not (not (= symbol_154 (_ bv6 32)))))
(assert (not (not (= symbol_152 (_ bv6 32)))))
(assert (not (not (= symbol_150 (_ bv6 32)))))
(assert (not (not (= symbol_148 (_ bv6 32)))))
(assert (not (not (= symbol_146 (_ bv6 32)))))
(assert (not (not (= symbol_144 (_ bv6 32)))))
(assert (not (not (= symbol_142 (_ bv6 32)))))
(assert (not (not (= symbol_141 (_ bv6 32)))))
(assert (not (not (= symbol_139 (_ bv6 32)))))
(assert (not (not (= symbol_137 (_ bv6 32)))))
(assert (not (not (= symbol_136 (_ bv6 32)))))
(assert (not (not (= symbol_134 (_ bv6 32)))))
(assert (not (not (= symbol_132 (_ bv6 32)))))
(assert (not (not (= symbol_129 (_ bv6 32)))))
(assert (not (not (= symbol_127 (_ bv6 32)))))
(assert (not (not (= symbol_125 (_ bv6 32)))))
(assert (not (not (= symbol_123 (_ bv6 32)))))
(assert (not (not (= symbol_120 (_ bv6 32)))))
(assert (not (not (= symbol_118 (_ bv6 32)))))
(assert (not (not (= symbol_116 (_ bv6 32)))))
(assert (not (not (= symbol_114 (_ bv6 32)))))
(assert (not (not (= symbol_112 (_ bv6 32)))))
(assert (not (not (= symbol_111 (_ bv6 32)))))
(assert (not (not (= symbol_108 (_ bv6 32)))))
(assert (not (not (= symbol_106 (_ bv6 32)))))
(assert (not (not (= symbol_104 (_ bv6 32)))))
(assert (not (not (= symbol_102 (_ bv6 32)))))
(assert (not (not (= symbol_100 (_ bv6 32)))))
(assert (not (not (= symbol_98 (_ bv6 32)))))
(assert (not (not (= symbol_96 (_ bv6 32)))))
(assert (not (not (= symbol_94 (_ bv6 32)))))
(assert (not (not (= symbol_92 (_ bv6 32)))))
(assert (not (not (= symbol_90 (_ bv6 32)))))
(assert (not (not (= symbol_89 (_ bv6 32)))))
(assert (not (not (= symbol_87 (_ bv6 32)))))
(assert (not (not (= symbol_86 (_ bv6 32)))))
(assert (not (not (= symbol_84 (_ bv6 32)))))
(assert (not (not (= symbol_81 (_ bv6 32)))))
(assert (not (not (= symbol_79 (_ bv6 32)))))
(assert (not (not (= symbol_77 (_ bv6 32)))))
(assert (not (not (= symbol_75 (_ bv6 32)))))
(assert (not (not (= symbol_72 (_ bv6 32)))))
(assert (not (not (= symbol_71 (_ bv6 32)))))
(assert (not (not (= symbol_69 (_ bv6 32)))))
(assert (not (not (= symbol_67 (_ bv6 32)))))
(assert (not (not (= symbol_64 (_ bv6 32)))))
(assert (not (not (= symbol_62 (_ bv6 32)))))
(assert (not (not (= symbol_60 (_ bv6 32)))))
(assert (not (not (= symbol_57 (_ bv6 32)))))
(assert (not (not (= symbol_54 (_ bv6 32)))))
(assert (not (not (= symbol_52 (_ bv6 32)))))
(assert (not (not (= symbol_49 (_ bv6 32)))))
(assert (not (not (= symbol_47 (_ bv6 32)))))
(assert (not (not (= symbol_45 (_ bv6 32)))))
(assert (not (not (= symbol_43 (_ bv6 32)))))
(assert (not (not (= symbol_42 (_ bv6 32)))))
(assert (not (not (= symbol_40 (_ bv6 32)))))
(assert (not (not (= symbol_38 (_ bv6 32)))))
(assert (not (not (= symbol_36 (_ bv6 32)))))
(assert (not (not (= symbol_34 (_ bv6 32)))))
(assert (not (not (= symbol_31 (_ bv6 32)))))
(assert (not (not (= symbol_29 (_ bv6 32)))))
(assert (not (not (= symbol_27 (_ bv6 32)))))
(assert (not (not (= symbol_24 (_ bv6 32)))))
(assert (not (not (= symbol_23 (_ bv6 32)))))
(assert (not (not (= symbol_21 (_ bv6 32)))))
(assert (not (not (= symbol_20 (_ bv6 32)))))
(assert (not (not (= symbol_18 (_ bv6 32)))))
(assert (not (not (= symbol_16 (_ bv6 32)))))
(assert (not (not (= symbol_14 (_ bv6 32)))))
(assert (not (not (= symbol_12 (_ bv6 32)))))
(assert (not (not (= symbol_11 (_ bv6 32)))))
(assert (not (not (= symbol_9 (_ bv6 32)))))
(assert (not (not (= symbol_7 (_ bv6 32)))))
(assert (not (not (= symbol_5 (_ bv6 32)))))
(assert (not (not (= symbol_3 (_ bv6 32)))))
(assert (not (not (= symbol_1 (_ bv6 32)))))
(assert (not (not (= symbol_0 (_ bv17 32)))))
(assert (not (= symbol_0 (_ bv6 32))))
(check-sat)